
(declare-fun it72 () Int)
(declare-fun i7 () Int)
(declare-fun i15 () Int)
(declare-fun i13 () Int)
(declare-fun it39 () Int)
(declare-fun i3 () Int)
(assert (let ((a!1 (not (<= (+ i15 (* (- 1) i7 i7) (* (- 1) i13 i13 i13 i13 i13)) 0)))
      (a!2 (* i7 i7 (exp 4 (+ (- 2) (* 2 it39)))))
      (a!3 (* (- 1) (* i13 i13 i13 (exp 9 (+ (- 1) it39)))))
      (a!5 (* (- 3) (* i13 i13 i13 (exp 9 (+ (- 1) it39)))))
      (a!6 (* 3 (* i15 (exp 9 (+ (- 1) it39)))))
      (a!8 (not (<= (+ i15
                       (* (- 1) i13 i13 i13 i13 i13)
                       (* (- 1) i7 i7)
                       (* 2 i7))
                    1)))
      (a!9 (* (- 1) (* i13 i13 i13 (exp 9 (+ (- 1) it72)))))
      (a!10 (* i7 i7 (exp 4 (+ (- 2) (* 2 it72)))))
      (a!11 (* i7 (exp 4 (+ (- 2) (* 2 it72)))))
      (a!12 (* (- 1) (exp 4 (+ (- 2) (* 2 it72)))))
      (a!14 (* (- 3) (* i13 i13 i13 (exp 9 (+ (- 1) it72)))))
      (a!15 (* 3 (* i15 (exp 9 (+ (- 1) it72)))))
      (a!16 (* (- 4) (exp 4 (+ (- 2) (* 2 it72))))))
(let ((a!4 (+ (* (- 1) a!2)
              (* (- 1) i13 i13 i13 i13 i13)
              (* i13 i13 i13)
              a!3
              (* i15 (exp 9 (+ (- 1) it39)))))
      (a!7 (not (<= (+ (* (- 4) a!2)
                       (* (- 1) i13 i13 i13 i13 i13)
                       (* i13 i13 i13)
                       a!5
                       a!6)
                    0)))
      (a!13 (+ (* (- 1) i13 i13 i13 i13 i13)
               (* i13 i13 i13)
               a!9
               (* i15 (exp 9 (+ (- 1) it72)))
               (* (- 1) a!10)
               (* 2 a!11)
               a!12))
      (a!17 (not (<= (+ (* (- 1) i13 i13 i13 i13 i13)
                        (* i13 i13 i13)
                        a!14
                        a!15
                        (* (- 4) a!10)
                        (* 8 a!11)
                        a!16)
                     0))))
  (and (not (<= i7 0))
       (not (<= i13 0))
       (= i3 3)
       (not (<= it39 0))
       a!1
       (not (<= a!4 0))
       a!7
       (not (<= i7 1))
       (not (<= it72 0))
       a!8
       (not (<= a!13 0))
       a!17))))
(check-sat)